(declare-fun sym4 () Real)
(assert (> sym4 -0.5))
(assert (< sym4 0.5))
(declare-fun sym17 () Real)
(assert (> sym17 -0.5))
(assert (< sym17 0.5))
(declare-fun sym18 () Real)
(assert (> sym18 -0.5))
(assert (< sym18 0.5))
(declare-fun sym25 () Real)
(assert (> sym25 -0.5))
(assert (< sym25 0.5))
(declare-fun sym45 () Real)
(assert (> sym45 -0.5))
(assert (< sym45 0.5))
(declare-fun sym48 () Real)
(assert (> sym48 -0.5))
(assert (< sym48 0.5))
(declare-fun sym57 () Real)
(assert (> sym57 -0.5))
(assert (< sym57 0.5))
(declare-fun sym73 () Real)
(assert (> sym73 -0.5))
(assert (< sym73 0.5))
(declare-fun sym85 () Real)
(assert (> sym85 -0.5))
(assert (< sym85 0.5))
(declare-fun sym102 () Real)
(assert (> sym102 -0.5))
(assert (< sym102 0.5))
(declare-fun sym119 () Real)
(assert (> sym119 -0.5))
(assert (< sym119 0.5))
(declare-fun sym126 () Real)
(assert (> sym126 -0.5))
(assert (< sym126 0.5))




(declare-fun y1_0 () Real)
(assert (= y1_0 -9.401840946703112))
(declare-fun y1_1 () Real)
(assert (= y1_1 -5.777415186260889))
(declare-fun y1_2 () Real)
(assert (= y1_2 -5.446919484103023))
(declare-fun y1_3 () Real)
(assert (= y1_3 -0.08548549480972478))
(declare-fun y1_4 () Real)
(assert (= y1_4 ( +  ( +  ( +  ( +  ( +  ( +  ( +  ( +  ( +  ( +  ( +  ( +  ( +  ( +  ( +  ( +  ( +  ( +  ( +  ( +  ( +  ( +  ( +  ( +  ( +  ( +  ( +  ( +  ( +  ( +  ( +  ( +  ( +  ( +  ( +  ( +  ( +  ( +  ( +  ( +  ( +  ( +  ( +  ( +  ( +  ( +  ( +  ( +  ( +  ( +  ( +  ( +  ( +  ( +  ( +  ( +  ( +  ( +  ( +  ( +  ( +  ( +  ( +  ( +  ( +  ( +  ( +  ( +  ( +  ( +  ( +  ( +  ( +  ( +  ( +  ( +  ( +  ( +  ( +  ( +  ( +  ( +  ( +  ( +  ( +  ( +  ( +  ( +  ( +  ( +  ( +  ( +  ( +  ( +  ( +  ( +  ( +  ( +  ( +  ( +  ( +  ( +  ( +  ( +  ( +  ( +  ( +  ( +  ( +  ( +  ( +  ( +  ( +  ( +  ( +  ( +  ( +  ( +  ( +  ( +  ( +  ( +  ( +  ( +  ( *  ( +  sym4 0.06595665961503983) 4.336419114752874) 0.13948035607197923) 0.22063740657043657) 0.0) -0.0) 0.2168579034985091) -0.0) 0.0) -0.0) -0.0) -0.3370249182355024) -0.0) 0.0) 0.0) ( *  ( +  sym17 0.04411178454756737) 0.0)) ( *  ( +  sym18 0.05344424769282341) 7.537322174142274)) 0.012304229765463841) 0.002174963523493966) -0.0) 0.0029940655965009196) -0.36831799290699846) 0.0) ( *  ( +  sym25 0.08606121689081192) 7.613920257330315)) 0.05664600235059523) -0.0) -0.0) -0.01538575316978218) -0.06569868308717292) 0.2581989616856616) -0.0) -0.6609065200446053) -0.06825219982406786) -0.07930429030042879) 0.21767660868428246) -0.01865273887165663) 0.0) 0.1352509726964963) 0.1792869423337529) -0.0) -0.025895618689532784) 0.37595651135781766) -0.022276012753515557) ( *  ( +  sym45 0.05330270901322365) 11.824812097819297)) 0.006577791149532342) -0.12911782789648113) ( *  ( +  sym48 0.06000934913754463) 4.117188365458537)) -0.20271854877253437) 0.0) -0.0) 0.18888765779549402) 0.0) 0.04057775438363555) -0.0) -0.0) ( *  ( +  sym57 0.07635708153247833) 8.674379907211755)) 0.0) 0.0) -0.0) -0.0) -0.0) 0.004297223212858199) 0.0) -0.14861358665085175) 0.0) -0.0) 0.33433219971484357) 0.0) -0.0) 0.5634113280832923) 0.0) ( *  ( +  sym73 0.07122598588466644) 0.0)) -0.0) -0.0) 0.0) -0.0) 0.16271235483476873) 0.05824994202430444) 0.0961944577082868) -0.15418484414056932) 0.11844641578819728) -0.0) 0.0) ( *  ( +  sym85 -0.0528729148209095) 9.50124159711157)) -0.003262350434197056) -0.0) -0.0) -0.027057998913437062) 0.0) 0.0) -0.0) -0.0) -0.0) -0.0) 0.0) -0.05871202529169881) -0.0) 0.0) -0.10276016978137911) -0.0) ( *  ( +  sym102 0.14526450634002686) 0.5893537505047857)) -0.0) -0.0) -0.303057356794928) 0.17347147278391478) 0.0) 0.007174664326957971) -0.0) -0.0) 0.0) -0.0) -0.16375215704912474) -0.062373438924318916) 0.32142244745772514) 0.0) 0.008966727353795466) 0.0) ( *  ( +  sym119 0.06155509501695633) 12.331074327866663)) 0.0) 0.12086023821320621) -0.0) -0.43296914962719796) -0.16709437405677535) -0.0) ( *  ( +  sym126 0.05224377661943436) 6.010435015878845)) -0.12139379939885153)))
(declare-fun y1_5 () Real)
(assert (= y1_5 3.3328737382378923))
(declare-fun y1_6 () Real)
(assert (= y1_6 -5.374834667004669))
(declare-fun y1_7 () Real)
(assert (= y1_7 -1.802725033680316))
(declare-fun y1_8 () Real)
(assert (= y1_8 -1.6728316931106995))
(declare-fun y1_9 () Real)
(assert (= y1_9 6.134460356614497))

(declare-fun y2_0 () Real)
(assert (= y2_0 -4.256141794413397))
(declare-fun y2_1 () Real)
(assert (= y2_1 -12.497291601426648))
(declare-fun y2_2 () Real)
(assert (= y2_2 -8.91191557179291))
(declare-fun y2_3 () Real)
(assert (= y2_3 -2.738348527440497))
(declare-fun y2_4 () Real)
(assert (= y2_4 ( +  ( +  ( +  ( +  ( +  ( +  ( +  ( +  ( +  ( +  ( +  ( +  ( +  ( +  ( +  ( +  ( +  ( +  ( +  ( +  ( +  ( +  ( +  ( +  ( +  ( +  ( +  ( +  ( +  ( +  ( +  ( +  ( +  ( +  ( +  ( +  ( +  ( +  ( +  ( +  ( +  ( +  ( +  ( +  ( +  ( +  ( +  ( +  ( +  ( +  ( +  ( +  ( +  ( +  ( +  ( +  ( +  ( +  ( +  ( +  ( +  ( +  ( +  ( +  ( +  ( +  ( +  ( +  ( +  ( +  ( +  ( +  ( +  ( +  ( +  ( +  ( +  ( +  ( +  ( +  ( +  ( +  ( +  ( +  ( +  ( +  ( +  ( +  ( +  ( +  ( +  ( +  ( +  ( +  ( +  ( +  ( +  ( +  ( +  ( +  ( +  ( +  ( +  ( +  ( +  ( +  ( +  ( +  ( +  ( +  ( +  ( +  ( +  ( +  ( +  ( +  ( +  ( +  ( +  ( +  ( +  ( +  ( +  ( +  ( *  ( +  sym4 0.06595665961503983) 3.9796565109364996) 0.21725956737036975) 0.2382617995187999) 0.0) -0.028553290693029396) 0.3184458859915193) -0.0) 0.24053349085083947) -0.0) -0.0) -0.0) -0.0) 0.0) 0.06986905968361873) ( *  ( +  sym17 0.04411178454756737) 1.131445958196608)) ( *  ( +  sym18 0.05344424769282341) 19.798920918694566)) 0.04829506362209612) 0.0) -0.027050437020142662) 0.0) -0.37618460461531267) 0.28850237205895024) ( *  ( +  sym25 0.08606121689081192) 1.3942454580813448)) 0.3174472854415259) -0.0) -0.27602261809386436) -0.0) -0.3746033854899758) 0.26725466755404287) -0.0006486583881592753) -0.21869743923901816) -0.00809717608518867) -0.08319419145019348) 0.1529963966312834) -0.04097030467348143) 0.0) 0.12156461749826797) 0.35346428516955797) -0.0) -0.06341295243019227) 0.32438523590533586) -0.024340914808234533) ( *  ( +  sym45 0.05330270901322365) 8.843330225299288)) 0.0) -0.0) ( *  ( +  sym48 0.06000934913754463) 4.012885139049378)) -0.13867839527299294) 0.0) -0.0) 0.5472147231913886) 0.0) 0.25206931278496303) -0.0) -0.0) ( *  ( +  sym57 0.07635708153247833) 4.362313703100564)) 0.0) 0.0) -0.0) -0.0) -0.0) 0.005193575563114766) 0.0) -0.10811057880208369) 0.0) -0.0) 0.2798129321686336) 0.0) -0.0) 0.3290921060695642) 0.0) ( *  ( +  sym73 0.07122598588466644) 0.0)) -0.0) -0.0) 0.0) -0.0) 0.03146479968388738) 0.01713767902311386) 0.09372812121955476) -0.20942051519680807) 0.2482949894038366) -0.0) 0.0) ( *  ( +  sym85 -0.0528729148209095) 8.53253753707589)) -0.0000022627228644221992) -0.0) -0.0) -0.06717400050071441) 0.0) 0.0) -0.0) -0.14925240662975403) -0.0) -0.0) 0.0) -0.0) -0.0) 0.0) -0.336733046849662) -0.0) ( *  ( +  sym102 0.14526450634002686) 0.0)) -0.0) -0.002116511505903371) -0.2097156402136663) 0.22052541017891397) 0.0) 0.012354095824162427) -0.2161429191460178) -0.0) 0.0) -0.0) -0.09315885478304715) -0.36466488880605524) 0.22846734491423884) 0.12381698558068989) 0.028390646506626874) 0.12846803250272895) ( *  ( +  sym119 0.06155509501695633) 17.242844287167227)) 0.0) 0.12545494732089857) -0.0) -0.49015180261256525) -0.08235062793675718) -0.0) ( *  ( +  sym126 0.05224377661943436) 13.640856854908963)) -0.1408086998181768)))
(declare-fun y2_5 () Real)
(assert (= y2_5 2.175705112689015))
(declare-fun y2_6 () Real)
(assert (= y2_6 -2.4043299473052206))
(declare-fun y2_7 () Real)
(assert (= y2_7 -3.0223243597886884))
(declare-fun y2_8 () Real)
(assert (= y2_8 -1.983248897593474))
(declare-fun y2_9 () Real)
(assert (= y2_9 6.592467668365776))

(declare-fun y3_0 () Real)
(assert (= y3_0 -4.101434431047224))
(declare-fun y3_1 () Real)
(assert (= y3_1 3.5387921316390973))
(declare-fun y3_2 () Real)
(assert (= y3_2 -1.4878237269012162))
(declare-fun y3_3 () Real)
(assert (= y3_3 -0.7917231171682053))
(declare-fun y3_4 () Real)
(assert (= y3_4 ( +  ( +  ( +  ( +  ( +  ( +  ( +  ( +  ( +  ( +  ( +  ( +  ( +  ( +  ( +  ( +  ( +  ( +  ( +  ( +  ( +  ( +  ( +  ( +  ( +  ( +  ( +  ( +  ( +  ( +  ( +  ( +  ( +  ( +  ( +  ( +  ( +  ( +  ( +  ( +  ( +  ( +  ( +  ( +  ( +  ( +  ( +  ( +  ( +  ( +  ( +  ( +  ( +  ( +  ( +  ( +  ( +  ( +  ( +  ( +  ( +  ( +  ( +  ( +  ( +  ( +  ( +  ( +  ( +  ( +  ( +  ( +  ( +  ( +  ( +  ( +  ( +  ( +  ( +  ( +  ( +  ( +  ( +  ( +  ( +  ( +  ( +  ( +  ( +  ( +  ( +  ( +  ( +  ( +  ( +  ( +  ( +  ( +  ( +  ( +  ( +  ( +  ( +  ( +  ( +  ( +  ( +  ( +  ( +  ( +  ( +  ( +  ( +  ( +  ( +  ( +  ( +  ( +  ( +  ( +  ( +  ( +  ( +  ( +  ( *  ( +  sym4 0.06595665961503983) 0.0) -0.15261437545088166) 0.0) 0.0) -0.10666696227795755) 0.0880157386357446) -0.0) 0.2971666714630282) -0.0) -0.0) -0.0) -0.0) 0.01935845366924582) 0.0) ( *  ( +  sym17 0.04411178454756737) 0.0)) ( *  ( +  sym18 0.05344424769282341) 2.5988553882801813)) 0.013340437956415239) 0.1362464196949821) -0.0) 0.02375166147072027) -0.24660870814750635) 0.13218091460041298) ( *  ( +  sym25 0.08606121689081192) 5.171764289016645)) 0.23680988349474158) -0.15187551413771297) -0.0) -0.13974695882985727) -0.5902997894320998) 0.10582676408935966) -0.05109761333347887) -0.02046430875944504) -0.04352102774921547) -0.1640079947661328) 0.0) -0.010219030372200693) 0.055315795343050596) 0.012337312177042746) 0.07395873006590918) -0.0) -0.0) 0.08831273210094531) -0.0005830294559002077) ( *  ( +  sym45 0.05330270901322365) 6.112280042228499)) 0.0) -0.0) ( *  ( +  sym48 0.06000934913754463) 0.0)) -0.003776164810433944) 0.0) -0.0) 0.26650267483742507) 0.0) 0.0) -0.0) -0.0) ( *  ( +  sym57 0.07635708153247833) 11.113476646523758)) 0.0) 0.0) -0.0) -0.303590672171252) -0.06232872513506548) 0.0003182390756788744) 0.2561571476609509) -0.0) 0.4557671826287021) -0.05782294220733445) 0.008209463506757345) 0.1255683411889292) -0.0) 0.23776429851064154) 0.0) ( *  ( +  sym73 0.07122598588466644) 10.550814284659237)) -0.3644119933964852) -0.18360726639380617) 0.019806887705815762) -0.0) 0.10320197956377038) 0.0) 0.02372397619493359) -0.14119916758389925) 0.12285901887509887) -0.019579745497582207) 0.0) ( *  ( +  sym85 -0.0528729148209095) 7.986955321819386)) -0.007959796731110238) -0.0) -0.007901268800304102) -0.11424861326412646) 0.0) 0.0) -0.0) -0.0) -0.0) -0.0) 0.1768017882203373) -0.0) -0.138101977825425) 0.10352763663057708) -0.0) -0.0) ( *  ( +  sym102 0.14526450634002686) 0.26352086778371925)) -0.0) -0.0) -0.1980712950150042) 0.051418940814972135) 0.0) 0.0028942205663147753) -0.20765442611155668) -0.0) 0.0) -0.0) -0.021130058952732157) -0.0) 0.3027796350520956) 0.0) 0.013521719053969934) 0.0) ( *  ( +  sym119 0.06155509501695633) 7.166853028800993)) 0.0) 0.5753378103538319) -0.06184184353814283) -0.12069390166708821) -0.009321623255533195) -0.0) ( *  ( +  sym126 0.05224377661943436) 1.3462580216897477)) -0.057430695702048534)))
(declare-fun y3_5 () Real)
(assert (= y3_5 -5.038963209722001))
(declare-fun y3_6 () Real)
(assert (= y3_6 -2.270686537676936))
(declare-fun y3_7 () Real)
(assert (= y3_7 -0.5267353231965836))
(declare-fun y3_8 () Real)
(assert (= y3_8 -2.4864170276291984))
(declare-fun y3_9 () Real)
(assert (= y3_9 -0.7361091351338324))

(declare-fun y4_0 () Real)
(assert (= y4_0 -4.7693120004379))
(declare-fun y4_1 () Real)
(assert (= y4_1 -11.820803512839861))
(declare-fun y4_2 () Real)
(assert (= y4_2 -2.915375765276968))
(declare-fun y4_3 () Real)
(assert (= y4_3 0.1917482844100319))
(declare-fun y4_4 () Real)
(assert (= y4_4 ( +  ( +  ( +  ( +  ( +  ( +  ( +  ( +  ( +  ( +  ( +  ( +  ( +  ( +  ( +  ( +  ( +  ( +  ( +  ( +  ( +  ( +  ( +  ( +  ( +  ( +  ( +  ( +  ( +  ( +  ( +  ( +  ( +  ( +  ( +  ( +  ( +  ( +  ( +  ( +  ( +  ( +  ( +  ( +  ( +  ( +  ( +  ( +  ( +  ( +  ( +  ( +  ( +  ( +  ( +  ( +  ( +  ( +  ( +  ( +  ( +  ( +  ( +  ( +  ( +  ( +  ( +  ( +  ( +  ( +  ( +  ( +  ( +  ( +  ( +  ( +  ( +  ( +  ( +  ( +  ( +  ( +  ( +  ( +  ( +  ( +  ( +  ( +  ( +  ( +  ( +  ( +  ( +  ( +  ( +  ( +  ( +  ( +  ( +  ( +  ( +  ( +  ( +  ( +  ( +  ( +  ( +  ( +  ( +  ( +  ( +  ( +  ( +  ( +  ( +  ( +  ( +  ( +  ( +  ( +  ( +  ( +  ( +  ( +  ( *  ( +  sym4 0.06595665961503983) 6.244872432249079) 0.011695618741214275) 0.14377921642329883) 0.0) -0.0) 0.2602925395126837) -0.0) 0.0) -0.0) -0.0) -0.0) -0.0) 0.0) 0.0) ( *  ( +  sym17 0.04411178454756737) 11.87601076945892)) ( *  ( +  sym18 0.05344424769282341) 18.06476258942602)) 0.0) 0.0) -0.03021329421429472) 0.0) -0.24339659897647187) 0.0) ( *  ( +  sym25 0.08606121689081192) 3.0890648626143373)) 0.0) -0.14387508964356846) -0.0) -0.047233499087321905) -0.27120872527919926) 0.2520846723332581) -0.0) -1.0582901280474781) -0.0) -0.1086898094601446) 0.0) -0.03905515510657404) 0.11756646677843724) 0.11046912113266838) 0.0879055014624122) -0.0) -0.0) 0.1959697908051565) -0.027841934104136604) ( *  ( +  sym45 0.05330270901322365) 13.019869387008454)) 0.0) -0.006203177380701849) ( *  ( +  sym48 0.06000934913754463) 0.0)) -0.0) 0.0) -0.3543233544069298) 0.41613288414286415) 0.0) 0.28003269518801627) -0.0) -0.0) ( *  ( +  sym57 0.07635708153247833) 11.634048980107822)) 0.0) 0.0) -0.0) -0.0) -0.2826487334595174) 0.0) 0.0) -0.16148151982573541) 0.0) -0.0) 0.10841997823344285) 0.0) -0.0) 0.21657330344451572) 0.0) ( *  ( +  sym73 0.07122598588466644) 0.0)) -0.0) -0.027509406543591852) 0.0) -0.0) 0.0) 0.0) 0.05740672329015947) -0.12517104091011497) 0.0) -0.0) 0.0) ( *  ( +  sym85 -0.0528729148209095) 0.0)) -0.00486613096080018) -0.0) -0.0) -0.2787632417498896) 0.0) 0.0) -0.0) -0.14828377780089663) -0.0) -0.0) 0.0) -0.0) -0.0) 0.0) -0.24569019661424002) -0.0) ( *  ( +  sym102 0.14526450634002686) 7.990283165826428)) -0.0) -0.016238120842491422) -0.3557884712668574) 0.19763829689674672) 0.0) 0.0013137148951798126) -0.0) -0.0) 0.0) -0.0) -0.0) -0.28176904669478464) 0.173943106678046) 0.07419187772180155) 0.007906893057015028) 0.0) ( *  ( +  sym119 0.06155509501695633) 15.279986291130292)) 0.0) 0.0) -0.0) -0.3231491504114087) -0.2012763601478521) -0.0) ( *  ( +  sym126 0.05224377661943436) 8.184257793759238)) -0.0)))
(declare-fun y4_5 () Real)
(assert (= y4_5 -0.5763823737655303))
(declare-fun y4_6 () Real)
(assert (= y4_6 -10.611327182941311))
(declare-fun y4_7 () Real)
(assert (= y4_7 0.8596879826585291))
(declare-fun y4_8 () Real)
(assert (= y4_8 -0.2755546898000344))
(declare-fun y4_9 () Real)
(assert (= y4_9 9.01298427416608))

(declare-fun y5_0 () Real)
(assert (= y5_0 -6.571313351990066))
(declare-fun y5_1 () Real)
(assert (= y5_1 0.4890713150838326))
(declare-fun y5_2 () Real)
(assert (= y5_2 -1.5275808143373182))
(declare-fun y5_3 () Real)
(assert (= y5_3 -0.11377340622530757))
(declare-fun y5_4 () Real)
(assert (= y5_4 ( +  ( +  ( +  ( +  ( +  ( +  ( +  ( +  ( +  ( +  ( +  ( +  ( +  ( +  ( +  ( +  ( +  ( +  ( +  ( +  ( +  ( +  ( +  ( +  ( +  ( +  ( +  ( +  ( +  ( +  ( +  ( +  ( +  ( +  ( +  ( +  ( +  ( +  ( +  ( +  ( +  ( +  ( +  ( +  ( +  ( +  ( +  ( +  ( +  ( +  ( +  ( +  ( +  ( +  ( +  ( +  ( +  ( +  ( +  ( +  ( +  ( +  ( +  ( +  ( +  ( +  ( +  ( +  ( +  ( +  ( +  ( +  ( +  ( +  ( +  ( +  ( +  ( +  ( +  ( +  ( +  ( +  ( +  ( +  ( +  ( +  ( +  ( +  ( +  ( +  ( +  ( +  ( +  ( +  ( +  ( +  ( +  ( +  ( +  ( +  ( +  ( +  ( +  ( +  ( +  ( +  ( +  ( +  ( +  ( +  ( +  ( +  ( +  ( +  ( +  ( +  ( +  ( +  ( +  ( +  ( +  ( +  ( +  ( +  ( *  ( +  sym4 0.06595665961503983) 4.0355047635900805) 0.012518287041131632) 0.0) 0.0) -0.09415110840051887) 0.1838689549102684) -0.0) 0.044538029676411316) -0.0) -0.0) -0.0) -0.0) 0.0) 0.0) ( *  ( +  sym17 0.04411178454756737) 2.348400665113816)) ( *  ( +  sym18 0.05344424769282341) 4.488635578078712)) 0.0) 0.0) -0.04000677130989949) 0.0358916038231782) -0.350009398101541) 0.0) ( *  ( +  sym25 0.08606121689081192) 5.92364572689439)) 0.17637626095601097) -0.0) -0.0) -0.0) -0.2480054127885507) 0.12867187001041938) -0.010452245489784824) -0.7064004189305028) -0.008396993691085508) -0.2572501967103009) 0.076929333912462) -0.015019869389966838) 0.11045081054146856) 0.023735659647682563) 0.37035546444127543) -0.0) -0.0) 0.15821521280855425) -0.008333535768547184) ( *  ( +  sym45 0.05330270901322365) 8.829409687870616)) 0.002226730660722427) -0.0) ( *  ( +  sym48 0.06000934913754463) 0.0)) -0.18495712169719555) 0.0) -0.0) 0.3757053897954143) 0.0) 0.07692235688279477) -0.0) -0.0) ( *  ( +  sym57 0.07635708153247833) 11.982222856720883)) 0.0) 0.0) -0.0) -0.023066321818698533) -0.19206848837711796) 0.0) 0.0) -0.04522431875164298) 0.3779182398709376) -0.0) 0.11289098718184101) 0.0) -0.0) 0.4150920230375323) 0.0) ( *  ( +  sym73 0.07122598588466644) 0.0)) -0.2693532669094533) -0.11203562270048356) 0.014669747176070926) -0.0) 0.05066882884912177) 0.0) 0.043698043962907954) -0.35469840082193815) 0.09448402121601218) -0.0) 0.0) ( *  ( +  sym85 -0.0528729148209095) 11.792092837838405)) -0.006982899317283211) -0.0) -0.0) -0.19047680838366116) 0.0) 0.0) -0.0) -0.016883549222257526) -0.0) -0.0) 0.0928031165129985) -0.0) -0.0) 0.06449327908260284) -0.06446876173560878) -0.0) ( *  ( +  sym102 0.14526450634002686) 3.550490099348726)) -0.0) -0.0) -0.22083003415895774) 0.08655998511712695) 0.0) 0.0018324717016094908) -0.0) -0.0) 0.0) -0.0) -0.06146192866816075) -0.0) 0.3082467316894498) 0.0) 0.009198140777722007) 0.0) ( *  ( +  sym119 0.06155509501695633) 10.026655348829289)) 0.0) 0.3846880986455527) -0.0) -0.3260028701070302) -0.17208567818816625) -0.0) ( *  ( +  sym126 0.05224377661943436) 4.379007650844304)) -0.13510891449757198)))
(declare-fun y5_5 () Real)
(assert (= y5_5 -2.86989378602083))
(declare-fun y5_6 () Real)
(assert (= y5_6 -4.780211388695663))
(declare-fun y5_7 () Real)
(assert (= y5_7 -3.0938940443038003))
(declare-fun y5_8 () Real)
(assert (= y5_8 -1.2934333367040016))
(declare-fun y5_9 () Real)
(assert (= y5_9 4.05505072735815))

(declare-fun y6_0 () Real)
(assert (= y6_0 1.6884512362733537))
(declare-fun y6_1 () Real)
(assert (= y6_1 -3.729762249426133))
(declare-fun y6_2 () Real)
(assert (= y6_2 5.4546117469823745))
(declare-fun y6_3 () Real)
(assert (= y6_3 -2.1589041153093893))
(declare-fun y6_4 () Real)
(assert (= y6_4 ( +  ( +  ( +  ( +  ( +  ( +  ( +  ( +  ( +  ( +  ( +  ( +  ( +  ( +  ( +  ( +  ( +  ( +  ( +  ( +  ( +  ( +  ( +  ( +  ( +  ( +  ( +  ( +  ( +  ( +  ( +  ( +  ( +  ( +  ( +  ( +  ( +  ( +  ( +  ( +  ( +  ( +  ( +  ( +  ( +  ( +  ( +  ( +  ( +  ( +  ( +  ( +  ( +  ( +  ( +  ( +  ( +  ( +  ( +  ( +  ( +  ( +  ( +  ( +  ( +  ( +  ( +  ( +  ( +  ( +  ( +  ( +  ( +  ( +  ( +  ( +  ( +  ( +  ( +  ( +  ( +  ( +  ( +  ( +  ( +  ( +  ( +  ( +  ( +  ( +  ( +  ( +  ( +  ( +  ( +  ( +  ( +  ( +  ( +  ( +  ( +  ( +  ( +  ( +  ( +  ( +  ( +  ( +  ( +  ( +  ( +  ( +  ( +  ( +  ( +  ( +  ( +  ( +  ( +  ( +  ( +  ( +  ( +  ( +  ( *  ( +  sym4 0.06595665961503983) 0.0) -0.22537308361784708) 0.0) 0.0) -0.0) 0.10517240708471766) -0.0) 0.0804949035328842) -0.001305678157521869) -0.0) -0.0) -0.0) 0.0) 0.2726010101518289) ( *  ( +  sym17 0.04411178454756737) 21.281606438600768)) ( *  ( +  sym18 0.05344424769282341) 16.741709713988914)) 0.033150598074575245) 0.21376441665276852) -0.0) 0.0) -0.10931700567503111) 0.48947059055071734) ( *  ( +  sym25 0.08606121689081192) 19.969989612590094)) 0.0) -0.2064071404017396) -0.0) -0.06979630178105647) -0.6993069010447934) 0.0019977504487502895) -0.0348973763662144) -0.0) -0.0) -0.0936773821153653) 0.0) -0.02088409826206652) 0.0) 0.02309874897801678) 0.0) -0.0) -0.0) 0.25746888683871744) -0.0) ( *  ( +  sym45 0.05330270901322365) 0.6899449431666439)) 0.0) -0.0) ( *  ( +  sym48 0.06000934913754463) 0.0)) -0.0) 0.0) -0.0) 0.0) 0.0) 0.3167293567382653) -0.1279508439697873) -0.0) ( *  ( +  sym57 0.07635708153247833) 0.0)) 0.0) 0.0) -0.0) -0.0) -0.0) 0.0) 0.22506752003784625) -0.0) 0.49749034112270313) -0.0) 0.0) 0.07432955574598621) -0.0) 0.31618404594584737) 0.0) ( *  ( +  sym73 0.07122598588466644) 2.2251851556841085)) -0.5967326617411168) -0.10330532736348018) 0.027610146449321728) -0.0) 0.0) 0.0) 0.0) -0.0) 0.03775394621657231) -0.0) 0.7651358969155811) ( *  ( +  sym85 -0.0528729148209095) 4.074846351955849)) -0.0) -0.0) -3.066251292238581) -0.010687207368091034) 0.0) 0.0) -0.0) -0.08934374812892987) -0.0) -0.0) 0.0) -0.0) -0.0) 0.12373188245224892) -0.1767762448600203) -0.0) ( *  ( +  sym102 0.14526450634002686) 6.930253388289882)) -0.0) -0.011508839226833807) -0.0) 0.0) 0.0) 0.0) -0.0) -0.0) 0.0) -0.0) -0.0) -0.030561750618310977) 0.4272984049633086) 0.09876812064691316) 0.038415814152684934) 0.0) ( *  ( +  sym119 0.06155509501695633) 9.556306004928091)) 0.0) 0.0) -0.0) -0.116840157205582) -0.0) -0.0) ( *  ( +  sym126 0.05224377661943436) 20.770188017429565)) -0.0)))
(declare-fun y6_5 () Real)
(assert (= y6_5 -0.7815940250126641))
(declare-fun y6_6 () Real)
(assert (= y6_6 0.3320673023457805))
(declare-fun y6_7 () Real)
(assert (= y6_7 -7.0035283528541825))
(declare-fun y6_8 () Real)
(assert (= y6_8 -6.3049403409529114))
(declare-fun y6_9 () Real)
(assert (= y6_9 -3.8912365481603857))

(declare-fun y7_0 () Real)
(assert (= y7_0 -3.9636426527562083))
(declare-fun y7_1 () Real)
(assert (= y7_1 -9.18999274608857))
(declare-fun y7_2 () Real)
(assert (= y7_2 -1.439631564794126))
(declare-fun y7_3 () Real)
(assert (= y7_3 -1.8871342149597972))
(declare-fun y7_4 () Real)
(assert (= y7_4 ( +  ( +  ( +  ( +  ( +  ( +  ( +  ( +  ( +  ( +  ( +  ( +  ( +  ( +  ( +  ( +  ( +  ( +  ( +  ( +  ( +  ( +  ( +  ( +  ( +  ( +  ( +  ( +  ( +  ( +  ( +  ( +  ( +  ( +  ( +  ( +  ( +  ( +  ( +  ( +  ( +  ( +  ( +  ( +  ( +  ( +  ( +  ( +  ( +  ( +  ( +  ( +  ( +  ( +  ( +  ( +  ( +  ( +  ( +  ( +  ( +  ( +  ( +  ( +  ( +  ( +  ( +  ( +  ( +  ( +  ( +  ( +  ( +  ( +  ( +  ( +  ( +  ( +  ( +  ( +  ( +  ( +  ( +  ( +  ( +  ( +  ( +  ( +  ( +  ( +  ( +  ( +  ( +  ( +  ( +  ( +  ( +  ( +  ( +  ( +  ( +  ( +  ( +  ( +  ( +  ( +  ( +  ( +  ( +  ( +  ( +  ( +  ( +  ( +  ( +  ( +  ( +  ( +  ( +  ( +  ( +  ( +  ( +  ( +  ( *  ( +  sym4 0.06595665961503983) 0.0) 0.011695618741214275) 0.0) 0.0) -0.0) 0.1267327982632178) -0.0) 0.008671413330160378) -0.00013022980782622138) -0.0) -0.16128963598713578) -0.0) 0.0) 0.05338838726285022) ( *  ( +  sym17 0.04411178454756737) 1.8553561958823344)) ( *  ( +  sym18 0.05344424769282341) 15.852136191314298)) 0.0) 0.02310228891981894) -0.0) 0.0) -0.18590949021782446) 0.09936809648045655) ( *  ( +  sym25 0.08606121689081192) 4.129598755614641)) 0.08008390085937087) -0.0) -0.0) -0.02719539353875047) -0.063493403257292) 0.16831903968013553) -0.03292824939482468) -0.5842876126785017) -0.3205061529459877) -0.03450974417425744) 0.0) -0.02337523959486125) 0.0) 0.0796473701347978) 0.09959745687450718) -0.0) -0.07815911586493512) 0.10929611256209179) -0.016359584555001687) ( *  ( +  sym45 0.05330270901322365) 9.317393911860592)) 0.0) -0.0) ( *  ( +  sym48 0.06000934913754463) 6.913824742272283)) -0.0) 0.0) -0.2741723283850321) 0.7619365571490195) 0.0) 0.20731184082134416) -0.015658422738003053) -0.0) ( *  ( +  sym57 0.07635708153247833) 7.327734698826573)) 0.0) 0.0) -0.0) -0.0) -0.11275738501214555) 0.0055716460393389) 0.0) -0.04892353689318107) 0.30973717618397856) -0.0) 0.0) 0.07864329081432357) -0.0) 0.04947682926091045) 0.0) ( *  ( +  sym73 0.07122598588466644) 5.189341898340913)) -0.10529852981665457) -0.07159758046416115) 0.0) -0.0) 0.0) 0.0) 0.03306390316017736) -0.0) 0.013338644052941528) -0.030047730103726734) 0.027052617971648027) ( *  ( +  sym85 -0.0528729148209095) 0.8898879864443399)) -0.009558056945444718) -0.0) -0.0) -0.3924604930160566) 0.0) 0.007759684962521772) -0.20384882313635594) -0.14214035449242388) -0.0) -0.0) 0.17034210244781844) -0.0) -0.0) 0.0) -0.08803350558892964) -0.166951884400139) ( *  ( +  sym102 0.14526450634002686) 2.143018145916135)) -0.0) -0.007346947474473734) -0.17504156788813846) 0.13166467218300937) 0.0) 0.013156763178768838) -0.3485255263197202) -0.013252912281467657) 0.0) -0.0) -0.0) -0.020562910403432274) 0.0) 0.0) 0.0) 0.09324330212760762) ( *  ( +  sym119 0.06155509501695633) 11.949983642485519)) 0.0) 0.20692751134178436) -0.0) -0.15582171964472719) -0.004080872693828597) -0.0) ( *  ( +  sym126 0.05224377661943436) 9.792011905298276)) -0.0)))
(declare-fun y7_5 () Real)
(assert (= y7_5 -2.7649237785575584))
(declare-fun y7_6 () Real)
(assert (= y7_6 -8.460183552818563))
(declare-fun y7_7 () Real)
(assert (= y7_7 4.487664058791557))
(declare-fun y7_8 () Real)
(assert (= y7_8 -1.5832765915633393))
(declare-fun y7_9 () Real)
(assert (= y7_9 4.575461320989357))

(declare-fun y8_0 () Real)
(assert (= y8_0 -3.1325922702669224))
(declare-fun y8_1 () Real)
(assert (= y8_1 -3.0938069243001944))
(declare-fun y8_2 () Real)
(assert (= y8_2 -1.6546464123784488))
(declare-fun y8_3 () Real)
(assert (= y8_3 -1.0620636933725436))
(declare-fun y8_4 () Real)
(assert (= y8_4 ( +  ( +  ( +  ( +  ( +  ( +  ( +  ( +  ( +  ( +  ( +  ( +  ( +  ( +  ( +  ( +  ( +  ( +  ( +  ( +  ( +  ( +  ( +  ( +  ( +  ( +  ( +  ( +  ( +  ( +  ( +  ( +  ( +  ( +  ( +  ( +  ( +  ( +  ( +  ( +  ( +  ( +  ( +  ( +  ( +  ( +  ( +  ( +  ( +  ( +  ( +  ( +  ( +  ( +  ( +  ( +  ( +  ( +  ( +  ( +  ( +  ( +  ( +  ( +  ( +  ( +  ( +  ( +  ( +  ( +  ( +  ( +  ( +  ( +  ( +  ( +  ( +  ( +  ( +  ( +  ( +  ( +  ( +  ( +  ( +  ( +  ( +  ( +  ( +  ( +  ( +  ( +  ( +  ( +  ( +  ( +  ( +  ( +  ( +  ( +  ( +  ( +  ( +  ( +  ( +  ( +  ( +  ( +  ( +  ( +  ( +  ( +  ( +  ( +  ( +  ( +  ( +  ( +  ( +  ( +  ( +  ( +  ( +  ( +  ( *  ( +  sym4 0.06595665961503983) 3.1481635812382107) -0.02233311132728747) 0.0) 0.0) -0.10280674043872992) 0.08110614837259474) -0.0) 0.0584694417687896) -0.0) -0.0) -0.0) -0.0) 0.000029025530646317856) 0.02228931954967061) ( *  ( +  sym17 0.04411178454756737) 0.08089378003957301)) ( *  ( +  sym18 0.05344424769282341) 8.993141749951816)) 0.0) 0.06342573744162251) -0.11438055290944851) 0.0345345780167416) -0.25441175610220085) 0.08558481899188726) ( *  ( +  sym25 0.08606121689081192) 4.218357067761281)) 0.12161365950010503) -0.0) -0.0) -0.01922286164057245) -0.1584178529812407) 0.11319312846451889) -0.026246974157980302) -0.37497996629251823) -0.12992267808768831) -0.10473860961682858) 0.028368205102714823) -0.019723754882888522) 0.2627227960736697) 0.048705578114431124) 0.17305818542022913) -0.0) -0.1132589171179672) 0.052818871730290234) -0.0055394731445018415) ( *  ( +  sym45 0.05330270901322365) 7.402806277837792)) 0.0) -0.0) ( *  ( +  sym48 0.06000934913754463) 1.3184992691745785)) -0.010216293769538882) 0.0) -0.18533977426781814) 0.5540254512820435) 0.0) 0.12004994775709449) -0.0) -0.0) ( *  ( +  sym57 0.07635708153247833) 9.921679922806975)) 0.0) 0.0) -0.0) -0.0) -0.19318143669153565) 0.0022530353452249107) 0.0) -0.03967919532921208) 0.2230006045872502) -0.0) 0.03831138935778066) 0.024218406398299808) -0.0) 0.15255326344479417) 0.0) ( *  ( +  sym73 0.07122598588466644) 0.7940105963825197)) -0.15192988504235608) -0.14609505922570162) 0.0) -0.0) 0.0) 0.0) 0.053363955535061666) -0.12260552301572865) 0.10962250915372218) -0.019331433782271208) 0.0) ( *  ( +  sym85 -0.0528729148209095) 5.567818848209509)) -0.006485601547537047) -0.0) -0.0) -0.26684479813848816) 0.0) 0.0) -0.074989857624775) -0.03621777612893838) -0.0) -0.0) 0.11505449264616417) -0.0) -0.0) 0.0) -0.0422897011198196) -0.23434391145527173) ( *  ( +  sym102 0.14526450634002686) 0.0)) -0.0) -0.0) -0.19994096604261177) 0.057506476777230774) 0.0) 0.009476786685233333) -0.29790803305726815) -0.0) 0.0) -0.0) -0.08206322713772002) -0.0018612762218682606) 0.1686152271667913) 0.0) 0.006619888249097943) 0.023089419658518316) ( *  ( +  sym119 0.06155509501695633) 8.858724442313425)) 0.0) 0.3241526138080117) -0.0) -0.18862132784511657) -0.0425054692813152) -0.0) ( *  ( +  sym126 0.05224377661943436) 7.674072257075635)) -0.044671167500647924)))
(declare-fun y8_5 () Real)
(assert (= y8_5 -2.6655537019982094))
(declare-fun y8_6 () Real)
(assert (= y8_6 -5.370876318082615))
(declare-fun y8_7 () Real)
(assert (= y8_7 -0.32518719458499074))
(declare-fun y8_8 () Real)
(assert (= y8_8 0.16592905389691165))
(declare-fun y8_9 () Real)
(assert (= y8_9 3.4261508093907143))

(declare-fun y9_0 () Real)
(assert (= y9_0 -5.153849567096574))
(declare-fun y9_1 () Real)
(assert (= y9_1 -13.760343025677313))
(declare-fun y9_2 () Real)
(assert (= y9_2 -2.042809766182912))
(declare-fun y9_3 () Real)
(assert (= y9_3 -4.235705082968364))
(declare-fun y9_4 () Real)
(assert (= y9_4 ( +  ( +  ( +  ( +  ( +  ( +  ( +  ( +  ( +  ( +  ( +  ( +  ( +  ( +  ( +  ( +  ( +  ( +  ( +  ( +  ( +  ( +  ( +  ( +  ( +  ( +  ( +  ( +  ( +  ( +  ( +  ( +  ( +  ( +  ( +  ( +  ( +  ( +  ( +  ( +  ( +  ( +  ( +  ( +  ( +  ( +  ( +  ( +  ( +  ( +  ( +  ( +  ( +  ( +  ( +  ( +  ( +  ( +  ( +  ( +  ( +  ( +  ( +  ( +  ( +  ( +  ( +  ( +  ( +  ( +  ( +  ( +  ( +  ( +  ( +  ( +  ( +  ( +  ( +  ( +  ( +  ( +  ( +  ( +  ( +  ( +  ( +  ( +  ( +  ( +  ( +  ( +  ( +  ( +  ( +  ( +  ( +  ( +  ( +  ( +  ( +  ( +  ( +  ( +  ( +  ( +  ( +  ( +  ( +  ( +  ( +  ( +  ( +  ( +  ( +  ( +  ( +  ( +  ( +  ( +  ( +  ( +  ( +  ( +  ( *  ( +  sym4 0.06595665961503983) 2.560623377740776) -0.13086324892701662) 0.24065403586862824) 0.0) -0.0) 0.4504201691556875) -0.0) 0.0) -0.0) -0.0) -0.0) -0.0) 0.0) 0.05144751515799495) ( *  ( +  sym17 0.04411178454756737) 16.068678350044717)) ( *  ( +  sym18 0.05344424769282341) 17.087655900684492)) 0.0) 0.0) -0.0) 0.0) -0.33910677827199054) 0.28337405237170465) ( *  ( +  sym25 0.08606121689081192) 9.19725622003397)) 0.0) -0.0) -0.07895030667545518) -0.0) -0.04268764216856628) 0.29750650144044755) -0.0) -0.35237901364673624) -0.0) -0.04714555555597637) 0.0) -0.03342385311425711) 0.0) 0.06561914778559251) 0.0) -0.0) -0.0) 0.3114514830261984) -0.030951244793125075) ( *  ( +  sym45 0.05330270901322365) 9.839418104512943)) 0.0) -0.0) ( *  ( +  sym48 0.06000934913754463) 2.8795799131409177)) -0.0) 0.0) -0.04232479270868073) 0.3598739653965863) 0.0) 0.39093808372577477) -0.0) -0.0) ( *  ( +  sym57 0.07635708153247833) 0.0)) 0.0) 0.0) -0.0) -0.0) -0.0) 0.004168640039604799) 0.0) -0.14563991856069708) 0.09718515091517375) -0.0) 0.14570471675786356) 0.0) -0.0) 0.3290482831084822) 0.0) ( *  ( +  sym73 0.07122598588466644) 0.0)) -0.0) -0.0) 0.0) -0.0) 0.0) 0.0) 0.06420592747026897) -0.0) 0.0) -0.0) 0.3763700318327854) ( *  ( +  sym85 -0.0528729148209095) 0.0)) -0.0) -0.0) -0.0) -0.04577670591797482) 0.0) 0.0) -0.0) -0.19640324267777795) -0.0) -0.0) 0.0) -0.0) -0.0) 0.0) -0.25142767014072653) -0.0) ( *  ( +  sym102 0.14526450634002686) 0.0)) -0.0) -0.011855021267156355) -0.14756480838115196) 0.13483440106733302) 0.0) 0.01674266223814338) -0.0) -0.0) 0.0) -0.0) -0.0) -0.047372888679458165) 0.0) 0.11276962741877798) 0.018227602896210258) 0.1079896437425985) ( *  ( +  sym119 0.06155509501695633) 15.873875291539896)) 0.0) 0.0) -0.0) -0.30484088344256005) -0.0) -0.0) ( *  ( +  sym126 0.05224377661943436) 14.939880019928802)) -0.0)))
(declare-fun y9_5 () Real)
(assert (= y9_5 1.0014161438284506))
(declare-fun y9_6 () Real)
(assert (= y9_6 -2.9461533839836624))
(declare-fun y9_7 () Real)
(assert (= y9_7 -1.529550288870321))
(declare-fun y9_8 () Real)
(assert (= y9_8 -1.5988542243117219))
(declare-fun y9_9 () Real)
(assert (= y9_9 7.2645562105913015))

(declare-fun y10_0 () Real)
(assert (= y10_0 -4.594123545965817))
(declare-fun y10_1 () Real)
(assert (= y10_1 -2.7645739852235267))
(declare-fun y10_2 () Real)
(assert (= y10_2 -0.9049712975333397))
(declare-fun y10_3 () Real)
(assert (= y10_3 -1.563918216479624))
(declare-fun y10_4 () Real)
(assert (= y10_4 ( +  ( +  ( +  ( +  ( +  ( +  ( +  ( +  ( +  ( +  ( +  ( +  ( +  ( +  ( +  ( +  ( +  ( +  ( +  ( +  ( +  ( +  ( +  ( +  ( +  ( +  ( +  ( +  ( +  ( +  ( +  ( +  ( +  ( +  ( +  ( +  ( +  ( +  ( +  ( +  ( +  ( +  ( +  ( +  ( +  ( +  ( +  ( +  ( +  ( +  ( +  ( +  ( +  ( +  ( +  ( +  ( +  ( +  ( +  ( +  ( +  ( +  ( +  ( +  ( +  ( +  ( +  ( +  ( +  ( +  ( +  ( +  ( +  ( +  ( +  ( +  ( +  ( +  ( +  ( +  ( +  ( +  ( +  ( +  ( +  ( +  ( +  ( +  ( +  ( +  ( +  ( +  ( +  ( +  ( +  ( +  ( +  ( +  ( +  ( +  ( +  ( +  ( +  ( +  ( +  ( +  ( +  ( +  ( +  ( +  ( +  ( +  ( +  ( +  ( +  ( +  ( +  ( +  ( +  ( +  ( +  ( +  ( +  ( +  ( *  ( +  sym4 0.06595665961503983) 1.9519674040886525) 0.007270527175801202) 0.02373864749599993) 0.0) -0.0) 0.19566133161999222) -0.0) 0.05047831718675182) -0.0) -0.0) -0.0) -0.0) 0.0) 0.0) ( *  ( +  sym17 0.04411178454756737) 8.19170914900242)) ( *  ( +  sym18 0.05344424769282341) 8.599440724464433)) 0.0005536373909860314) 0.0) -0.07233409989228035) 0.008910654727031397) -0.18692948103094412) 0.0) ( *  ( +  sym25 0.08606121689081192) 4.620218287885791)) 0.1394098596249782) -0.0) -0.013314226631127846) -0.07339947017232515) -0.22481312206913973) 0.10234536399007788) -0.007766341055535123) -0.4782391217953677) -0.055027468197779636) -0.16246538647642325) 0.021160559033060806) -0.014233379123538932) 0.08782032043609542) 0.03935288197913155) 0.29024044694972906) -0.0) -0.0) 0.12376354705188188) -0.015453474241936839) ( *  ( +  sym45 0.05330270901322365) 7.205983601454786)) 0.0) -0.0) ( *  ( +  sym48 0.06000934913754463) 0.0)) -0.0) 0.0) -0.027885413749095728) 0.6816816202224699) 0.0) 0.05517685410277959) -0.052056881916273404) -0.0) ( *  ( +  sym57 0.07635708153247833) 9.560252446394692)) 0.0) 0.0) -0.0) -0.0) -0.12219141655741017) 0.0) 0.0) -0.07232176697763512) 0.3488425056103808) -0.0) 0.024086987396468713) 0.05243437951090072) -0.0) 0.24842663822685102) 0.0) ( *  ( +  sym73 0.07122598588466644) 0.0)) -0.10247245806813958) -0.03976920865433039) 0.009985006095422142) -0.0) 0.0) 0.0) 0.0) -0.14380638846290586) 0.0) -0.0028185059402467236) 0.09479329726008952) ( *  ( +  sym85 -0.0528729148209095) 5.935812186182146)) -0.005131148864832368) -0.0) -0.0) -0.19618684067072514) 0.0) 0.0) -0.0) -0.06929695360183567) -0.0) -0.0) 0.08393622227195646) -0.0) -0.0) 0.18837328222128305) -0.06810796763310299) -0.0) ( *  ( +  sym102 0.14526450634002686) 4.547583085228369)) -0.0) -0.0) -0.2069395838265999) 0.10961214213065039) 0.0) 0.002307960573051596) -0.0006740131169470103) -0.0) 0.0) -0.0) -0.0) -0.053169748718169825) 0.11930146583364629) 0.0) 0.010921634654727641) 0.0) ( *  ( +  sym119 0.06155509501695633) 7.820334774184277)) 0.0) 0.4981472112110637) -0.0) -0.2196145867505407) -0.08269010570102435) -0.0) ( *  ( +  sym126 0.05224377661943436) 5.866180907884098)) -0.08677997694658478)))
(declare-fun y10_5 () Real)
(assert (= y10_5 -3.369644529210002))
(declare-fun y10_6 () Real)
(assert (= y10_6 -4.7641143867890925))
(declare-fun y10_7 () Real)
(assert (= y10_7 -0.7457517961137563))
(declare-fun y10_8 () Real)
(assert (= y10_8 -4.009446151458568))
(declare-fun y10_9 () Real)
(assert (= y10_9 4.505277706729086))



(assert (> y1_4  y1_0))
(assert (> y1_4  y1_1))
(assert (> y1_4  y1_2))
(assert (> y1_4  y1_3))
(assert (> y1_4  y1_5))
(assert (> y1_4  y1_6))
(assert (> y1_4  y1_7))
(assert (> y1_4  y1_8))
(assert (> y1_4  y1_9))

(assert (> y2_4  y2_0))
(assert (> y2_4  y2_1))
(assert (> y2_4  y2_2))
(assert (> y2_4  y2_3))
(assert (> y2_4  y2_5))
(assert (> y2_4  y2_6))
(assert (> y2_4  y2_7))
(assert (> y2_4  y2_8))
(assert (> y2_4  y2_9))

(assert (> y3_4  y3_0))
(assert (> y3_4  y3_1))
(assert (> y3_4  y3_2))
(assert (> y3_4  y3_3))
(assert (> y3_4  y3_5))
(assert (> y3_4  y3_6))
(assert (> y3_4  y3_7))
(assert (> y3_4  y3_8))
(assert (> y3_4  y3_9))

(assert (> y4_4  y4_0))
(assert (> y4_4  y4_1))
(assert (> y4_4  y4_2))
(assert (> y4_4  y4_3))
(assert (> y4_4  y4_5))
(assert (> y4_4  y4_6))
(assert (> y4_4  y4_7))
(assert (> y4_4  y4_8))
(assert (> y4_4  y4_9))

(assert (> y5_4  y5_0))
(assert (> y5_4  y5_1))
(assert (> y5_4  y5_2))
(assert (> y5_4  y5_3))
(assert (> y5_4  y5_5))
(assert (> y5_4  y5_6))
(assert (> y5_4  y5_7))
(assert (> y5_4  y5_8))
(assert (> y5_4  y5_9))



(assert (> y6_4  y6_0))
(assert (> y6_4  y6_1))
(assert (> y6_4  y6_2))
(assert (> y6_4  y6_3))
(assert (> y6_4  y6_5))
(assert (> y6_4  y6_6))
(assert (> y6_4  y6_7))
(assert (> y6_4  y6_8))
(assert (> y6_4  y6_9))

(assert (> y7_4  y7_0))
(assert (> y7_4  y7_1))
(assert (> y7_4  y7_2))
(assert (> y7_4  y7_3))
(assert (> y7_4  y7_5))
(assert (> y7_4  y7_6))
(assert (> y7_4  y7_7))
(assert (> y7_4  y7_8))
(assert (> y7_4  y7_9))

(assert (> y8_4  y8_0))
(assert (> y8_4  y8_1))
(assert (> y8_4  y8_2))
(assert (> y8_4  y8_3))
(assert (> y8_4  y8_5))
(assert (> y8_4  y8_6))
(assert (> y8_4  y8_7))
(assert (> y8_4  y8_8))
(assert (> y8_4  y8_9))

(assert (> y9_4  y9_0))
(assert (> y9_4  y9_1))
(assert (> y9_4  y9_2))
(assert (> y9_4  y9_3))
(assert (> y9_4  y9_5))
(assert (> y9_4  y9_6))
(assert (> y9_4  y9_7))
(assert (> y9_4  y9_8))
(assert (> y9_4  y9_9))

(assert (> y10_4  y10_0))
(assert (> y10_4  y10_1))
(assert (> y10_4  y10_2))
(assert (> y10_4  y10_3))
(assert (> y10_4  y10_5))
(assert (> y10_4  y10_6))
(assert (> y10_4  y10_7))
(assert (> y10_4  y10_8))
(assert (> y10_4  y10_9))

(check-sat)
(get-model)

